
  22    4
  10   10   10   10

   0   0   0   0   0   7 2 3 4 5 6 8 9 
  10  10  10  10  10   7 21 20 19 18 17 14 10 
   7  10  10  10  10   4 19 18 12 7 
   8  10  10  10  10   4 19 12 11 10 
  10  10  10  10  10   4 19 18 13 12 
   6  10  10  10  10   3 21 16 11 
   5  10  10  10  10   2 20 10 
   9  10  10  10  10   2 20 10 
   8  10  10  10  10   1 11 
   9  10  10  10  10   2 16 15 
   3  10  10  10  10   2 18 17 
   9  10  10  10  10   2 17 15 
   8  10  10  10  10   1 16 
   1  10  10  10  10   1 15 
   6  10  10  10  10   1 22
   8  10  10  10  10   1 22
   4  10  10  10  10   1 22
   4  10  10  10  10   1 22
   8  10  10  10  10   1 22
   7  10  10  10  10   1 22
   8  10  10  10  10   1 22
   0   0   0   0   0   0 
